[VALIDATOR STDOUT]
Type-checking move
...action passes type checking.
Type-checking pick
...action passes type checking.
Type-checking drop
...action passes type checking.
Checking plan: /home/jfan5/Safety-gen/runs/benchmark/optic/grippers_20260205_142606/grippers/optic_results/grippers-n2-r18-o16-s16001.plan
Plan to validate:

Plan size: 52
1:
(pick robot1 ball4 room17 lgripper1)
 
2:
(move robot2 room11 room8)
 
3:
(move robot1 room17 room4)
 
4:
(pick robot2 ball16 room8 lgripper2)
 
5:
(pick robot2 ball13 room8 rgripper2)
 
6:
(drop robot1 ball4 room4 lgripper1)
 
7:
(pick robot1 ball7 room4 rgripper1)
 
8:
(move robot2 room8 room17)
 
9:
(move robot1 room4 room12)
 
10:
(drop robot2 ball13 room17 rgripper2)
 
11:
(drop robot1 ball7 room12 rgripper1)
 
12:
(move robot2 room17 room8)
 
13:
(pick robot1 ball6 room12 lgripper1)
 
14:
(pick robot2 ball11 room8 rgripper2)
 
15:
(move robot1 room12 room7)
 
16:
(move robot2 room8 room7)
 
17:
(drop robot1 ball6 room7 lgripper1)
 
18:
(pick robot1 ball3 room7 rgripper1)
 
19:
(drop robot2 ball11 room7 rgripper2)
 
20:
(move robot1 room7 room10)
 
21:
(move robot2 room7 room10)
 
22:
(pick robot1 ball2 room10 lgripper1)
 
23:
(drop robot2 ball16 room10 lgripper2)
 
24:
(move robot1 room10 room5)
 
25:
(pick robot2 ball12 room10 rgripper2)
 
26:
(move robot2 room10 room5)
 
27:
(drop robot1 ball2 room5 lgripper1)
 
28:
(move robot1 room5 room16)
 
29:
(move robot2 room5 room18)
 
30:
(drop robot1 ball3 room16 rgripper1)
 
31:
(pick robot1 ball8 room16 lgripper1)
 
32:
(drop robot2 ball12 room18 rgripper2)
 
33:
(pick robot2 ball9 room18 lgripper2)
 
34:
(move robot1 room16 room15)
 
35:
(move robot2 room18 room3)
 
36:
(drop robot1 ball8 room15 lgripper1)
 
37:
(drop robot2 ball9 room3 lgripper2)
 
38:
(move robot1 room15 room5)
 
39:
(move robot2 room3 room5)
 
40:
(move robot1 room5 room12)
 
41:
(move robot2 room5 room13)
 
42:
(pick robot1 ball10 room12 lgripper1)
 
43:
(pick robot1 ball1 room12 rgripper1)
 
44:
(pick robot2 ball5 room13 lgripper2)
 
45:
(pick robot2 ball15 room13 rgripper2)
 
46:
(move robot2 room13 room5)
 
47:
(move robot1 room12 room13)
 
48:
(drop robot1 ball10 room13 lgripper1)
 
49:
(drop robot1 ball1 room13 rgripper1)
 
50:
(drop robot2 ball5 room5 lgripper2)
 
51:
(move robot2 room5 room11)
 
52:
(drop robot2 ball15 room11 rgripper2)
 

Plan Validation details
-----------------------

Checking next happening (time 1)
Deleting (at ball4 room17)
Deleting (free robot1 lgripper1)
Adding (carry robot1 ball4 lgripper1)

Checking next happening (time 2)
Deleting (at-robby robot2 room11)
Adding (at-robby robot2 room8)

Checking next happening (time 3)
Deleting (at-robby robot1 room17)
Adding (at-robby robot1 room4)

Checking next happening (time 4)
Deleting (at ball16 room8)
Deleting (free robot2 lgripper2)
Adding (carry robot2 ball16 lgripper2)

Checking next happening (time 5)
Deleting (at ball13 room8)
Deleting (free robot2 rgripper2)
Adding (carry robot2 ball13 rgripper2)

Checking next happening (time 6)
Deleting (carry robot1 ball4 lgripper1)
Adding (at ball4 room4)
Adding (free robot1 lgripper1)

Checking next happening (time 7)
Deleting (at ball7 room4)
Deleting (free robot1 rgripper1)
Adding (carry robot1 ball7 rgripper1)

Checking next happening (time 8)
Deleting (at-robby robot2 room8)
Adding (at-robby robot2 room17)

Checking next happening (time 9)
Deleting (at-robby robot1 room4)
Adding (at-robby robot1 room12)

Checking next happening (time 10)
Deleting (carry robot2 ball13 rgripper2)
Adding (at ball13 room17)
Adding (free robot2 rgripper2)

Checking next happening (time 11)
Deleting (carry robot1 ball7 rgripper1)
Adding (at ball7 room12)
Adding (free robot1 rgripper1)

Checking next happening (time 12)
Deleting (at-robby robot2 room17)
Adding (at-robby robot2 room8)

Checking next happening (time 13)
Deleting (at ball6 room12)
Deleting (free robot1 lgripper1)
Adding (carry robot1 ball6 lgripper1)

Checking next happening (time 14)
Deleting (at ball11 room8)
Deleting (free robot2 rgripper2)
Adding (carry robot2 ball11 rgripper2)

Checking next happening (time 15)
Deleting (at-robby robot1 room12)
Adding (at-robby robot1 room7)

Checking next happening (time 16)
Deleting (at-robby robot2 room8)
Adding (at-robby robot2 room7)

Checking next happening (time 17)
Deleting (carry robot1 ball6 lgripper1)
Adding (at ball6 room7)
Adding (free robot1 lgripper1)

Checking next happening (time 18)
Deleting (at ball3 room7)
Deleting (free robot1 rgripper1)
Adding (carry robot1 ball3 rgripper1)

Checking next happening (time 19)
Deleting (carry robot2 ball11 rgripper2)
Adding (at ball11 room7)
Adding (free robot2 rgripper2)

Checking next happening (time 20)
Deleting (at-robby robot1 room7)
Adding (at-robby robot1 room10)

Checking next happening (time 21)
Deleting (at-robby robot2 room7)
Adding (at-robby robot2 room10)

Checking next happening (time 22)
Deleting (at ball2 room10)
Deleting (free robot1 lgripper1)
Adding (carry robot1 ball2 lgripper1)

Checking next happening (time 23)
Deleting (carry robot2 ball16 lgripper2)
Adding (at ball16 room10)
Adding (free robot2 lgripper2)

Checking next happening (time 24)
Deleting (at-robby robot1 room10)
Adding (at-robby robot1 room5)

Checking next happening (time 25)
Deleting (at ball12 room10)
Deleting (free robot2 rgripper2)
Adding (carry robot2 ball12 rgripper2)

Checking next happening (time 26)
Deleting (at-robby robot2 room10)
Adding (at-robby robot2 room5)

Checking next happening (time 27)
Deleting (carry robot1 ball2 lgripper1)
Adding (at ball2 room5)
Adding (free robot1 lgripper1)

Checking next happening (time 28)
Deleting (at-robby robot1 room5)
Adding (at-robby robot1 room16)

Checking next happening (time 29)
Deleting (at-robby robot2 room5)
Adding (at-robby robot2 room18)

Checking next happening (time 30)
Deleting (carry robot1 ball3 rgripper1)
Adding (at ball3 room16)
Adding (free robot1 rgripper1)

Checking next happening (time 31)
Deleting (at ball8 room16)
Deleting (free robot1 lgripper1)
Adding (carry robot1 ball8 lgripper1)

Checking next happening (time 32)
Deleting (carry robot2 ball12 rgripper2)
Adding (at ball12 room18)
Adding (free robot2 rgripper2)

Checking next happening (time 33)
Deleting (at ball9 room18)
Deleting (free robot2 lgripper2)
Adding (carry robot2 ball9 lgripper2)

Checking next happening (time 34)
Deleting (at-robby robot1 room16)
Adding (at-robby robot1 room15)

Checking next happening (time 35)
Deleting (at-robby robot2 room18)
Adding (at-robby robot2 room3)

Checking next happening (time 36)
Deleting (carry robot1 ball8 lgripper1)
Adding (at ball8 room15)
Adding (free robot1 lgripper1)

Checking next happening (time 37)
Deleting (carry robot2 ball9 lgripper2)
Adding (at ball9 room3)
Adding (free robot2 lgripper2)

Checking next happening (time 38)
Deleting (at-robby robot1 room15)
Adding (at-robby robot1 room5)

Checking next happening (time 39)
Deleting (at-robby robot2 room3)
Adding (at-robby robot2 room5)

Checking next happening (time 40)
Deleting (at-robby robot1 room5)
Adding (at-robby robot1 room12)

Checking next happening (time 41)
Deleting (at-robby robot2 room5)
Adding (at-robby robot2 room13)

Checking next happening (time 42)
Deleting (at ball10 room12)
Deleting (free robot1 lgripper1)
Adding (carry robot1 ball10 lgripper1)

Checking next happening (time 43)
Deleting (at ball1 room12)
Deleting (free robot1 rgripper1)
Adding (carry robot1 ball1 rgripper1)

Checking next happening (time 44)
Deleting (at ball5 room13)
Deleting (free robot2 lgripper2)
Adding (carry robot2 ball5 lgripper2)

Checking next happening (time 45)
Deleting (at ball15 room13)
Deleting (free robot2 rgripper2)
Adding (carry robot2 ball15 rgripper2)

Checking next happening (time 46)
Deleting (at-robby robot2 room13)
Adding (at-robby robot2 room5)

Checking next happening (time 47)
Deleting (at-robby robot1 room12)
Adding (at-robby robot1 room13)

Checking next happening (time 48)
Deleting (carry robot1 ball10 lgripper1)
Adding (at ball10 room13)
Adding (free robot1 lgripper1)

Checking next happening (time 49)
Deleting (carry robot1 ball1 rgripper1)
Adding (at ball1 room13)
Adding (free robot1 rgripper1)

Checking next happening (time 50)
Deleting (carry robot2 ball5 lgripper2)
Adding (at ball5 room5)
Adding (free robot2 lgripper2)

Checking next happening (time 51)
Deleting (at-robby robot2 room5)
Adding (at-robby robot2 room11)

Checking next happening (time 52)
Deleting (carry robot2 ball15 rgripper2)
Adding (at ball15 room11)
Adding (free robot2 rgripper2)
Plan executed successfully - checking goal
Plan valid
Final value: 52 

Successful plans:
Value: 52
 /home/jfan5/Safety-gen/runs/benchmark/optic/grippers_20260205_142606/grippers/optic_results/grippers-n2-r18-o16-s16001.plan 52
